100
32
19
25
4
17
23
6
8
1
22
13
8
10
1
8
21
21
10
6
6
27
17
10
10
11
20
20
1
17
21
2
19
5
4
2
18
11
1
7
5
3
1
4
5
1
16
6
20
4
6
3
5
2
18
19
20
19
7
19
1
10
2
1
8
28
8
18
3
12
4
6
3
2
3
6
19
5
2
20
4
11
6
3
2
1
8
5
17
6
18
6
1
17
2
2
2
4
4
1
12
2